clingo version 5.6.2
Reading from ...etition/0004-graph_colouring-125-0.asp ...
Solving...
Answer: 1

SATISFIABLE

Models       : 1+
Calls        : 1
Time         : 6.325s (Solving: 6.15s 1st Model: 6.15s Unsat: 0.00s)
CPU Time     : 6.287s

Choices      : 303256  
Conflicts    : 270158   (Analyzed: 270158)
Restarts     : 843      (Average: 320.47 Last: 430)
Model-Level  : 20.0    
Problems     : 1        (Average Length: 0.00 Splits: 0)
Lemmas       : 270158   (Deleted: 264208)
  Binary     : 0        (Ratio:   0.00%)
  Ternary    : 0        (Ratio:   0.00%)
  Conflict   : 270158   (Average Length:   36.9 Ratio: 100.00%) 
  Loop       : 0        (Average Length:    0.0 Ratio:   0.00%) 
  Other      : 0        (Average Length:    0.0 Ratio:   0.00%) 
Backjumps    : 270158   (Average:  1.10 Max:  12 Sum: 296627)
  Executed   : 270158   (Average:  1.10 Max:  12 Sum: 296627 Ratio: 100.00%)
  Bounded    : 0        (Average:  0.00 Max:   0 Sum:      0 Ratio:   0.00%)

Rules        : 16766   
Atoms        : 3074    
Bodies       : 1230    
Equivalences : 2427     (Atom=Atom: 14 Body=Body: 604 Other: 1809)
Tight        : Yes
Variables    : 740      (Eliminated:    0 Frozen:    0)
Constraints  : 6729     (Binary:  89.2% Ternary:   0.1% Other:  10.7%)

